; benchmark generated from python API
(set-info :status unknown)
(declare-fun x_month () Int)
(declare-fun x_day () Int)
(declare-fun x_year () Int)
(declare-fun y_month () Int)
(declare-fun y_day () Int)
(declare-fun y_year () Int)
(assert
 (>= x_month 1))
(assert
 (<= x_month 12))
(assert
 (>= x_day 1))
(assert
 (<= x_day 31))
(assert
 (let (($x813 (<= x_day 28)))
 (let (($x607 (<= x_day 29)))
 (let (($x713 (= (mod x_year 400) 0)))
 (let (($x768 (= (mod x_year 4) 0)))
 (let (($x680 (ite (or (and $x768 (and (distinct (mod x_year 100) 0) true)) $x713) $x607 $x813)))
 (let (($x803 (= x_month 2)))
 (ite $x803 $x680 true))))))))
(assert
 (let (($x787 (<= x_day 30)))
 (let (($x605 (or (= x_month 4) (= x_month 6) (= x_month 9) (= x_month 11))))
 (ite $x605 $x787 true))))
(assert
 (>= y_month 1))
(assert
 (<= y_month 12))
(assert
 (>= y_day 1))
(assert
 (<= y_day 31))
(assert
 (let (($x791 (<= y_day 28)))
 (let (($x684 (<= y_day 29)))
 (let (($x492 (= (mod y_year 400) 0)))
 (let (($x704 (= (mod y_year 4) 0)))
 (let (($x792 (ite (or (and $x704 (and (distinct (mod y_year 100) 0) true)) $x492) $x684 $x791)))
 (let (($x649 (= y_month 2)))
 (ite $x649 $x792 true))))))))
(assert
 (let (($x747 (<= y_day 30)))
 (let (($x732 (= y_month 4)))
 (let (($x128 (or $x732 (= y_month 6) (= y_month 9) (= y_month 11))))
 (ite $x128 $x747 true)))))
(assert
 (let (($x337 (= x_day 31)))
 (let (($x658 (= x_month 1)))
 (let (($x828 (= x_year 2023)))
 (and $x828 $x658 $x337)))))
(assert
 (let (($x29 (or (and (= (mod 2000 4) 0) (and (distinct (mod 2000 100) 0) true)) (= (mod 2000 400) 0))))
 (let ((?x36 (ite (= 3 2) (ite $x29 31 31) (ite (= 3 1) (ite $x29 0 0) 0))))
 (let ((?x46 (ite (= 3 4) (ite $x29 91 90) (ite (= 3 3) (ite $x29 60 59) ?x36))))
 (let ((?x58 (ite (= 3 6) (ite $x29 152 151) (ite (= 3 5) (ite $x29 121 120) ?x46))))
 (let ((?x70 (ite (= 3 8) (ite $x29 213 212) (ite (= 3 7) (ite $x29 182 181) ?x58))))
 (let ((?x82 (ite (= 3 10) (ite $x29 274 273) (ite (= 3 9) (ite $x29 244 243) ?x70))))
 (let ((?x94 (ite (= 3 12) (ite $x29 335 334) (ite (= 3 11) (ite $x29 305 304) ?x82))))
 (let ((?x16 (- (+ (* 365 (- 2000 1)) (div (- 2000 1) 4)) (div (- 2000 1) 100))))
 (let ((?x97 (+ (+ (+ ?x16 (div (- 2000 1) 400)) ?x94) (- 1 1))))
 (let ((?x765 (+ (mod (- (+ x_month (+ (* 0 12) 3)) 1) 12) 1)))
 (let ((?x429 (ite (or (= ?x765 4) (= ?x765 6) (= ?x765 9) (= ?x765 11)) 30 31)))
 (let ((?x580 (+ 0 (div (- (+ x_month (+ (* 0 12) 3)) 1) 12))))
 (let ((?x781 (+ x_year ?x580)))
 (let (($x685 (or (and (= (mod ?x781 4) 0) (and (distinct (mod ?x781 100) 0) true)) (= (mod ?x781 400) 0))))
 (let ((?x725 (ite (= ?x765 2) (ite $x685 29 28) ?x429)))
 (let ((?x125 (ite (< x_day 1) 1 (ite (> x_day ?x725) ?x725 x_day))))
 (let (($x462 (and (= (mod (+ ?x781 (* (div 0 146097) 400)) 4) 0) (and (distinct (mod (+ ?x781 (* (div 0 146097) 400)) 100) 0) true))))
 (let (($x246 (or $x462 (= (mod (+ ?x781 (* (div 0 146097) 400)) 400) 0))))
 (let ((?x288 (ite (= 2 ?x765) (ite $x246 31 31) (ite (= 1 ?x765) (ite $x246 0 0) 0))))
 (let ((?x298 (ite (= 4 ?x765) (ite $x246 91 90) (ite (= 3 ?x765) (ite $x246 60 59) ?x288))))
 (let ((?x743 (ite (= 6 ?x765) (ite $x246 152 151) (ite (= 5 ?x765) (ite $x246 121 120) ?x298))))
 (let ((?x104 (ite (= 8 ?x765) (ite $x246 213 212) (ite (= 7 ?x765) (ite $x246 182 181) ?x743))))
 (let ((?x204 (ite (= 10 ?x765) (ite $x246 274 273) (ite (= 9 ?x765) (ite $x246 244 243) ?x104))))
 (let ((?x661 (ite (= 12 ?x765) (ite $x246 335 334) (ite (= 11 ?x765) (ite $x246 305 304) ?x204))))
 (let ((?x233 (+ (* 365 (- (+ ?x781 (* (div 0 146097) 400)) 1)) (div (- (+ ?x781 (* (div 0 146097) 400)) 1) 4))))
 (let ((?x273 (+ (- ?x233 (div (- (+ ?x781 (* (div 0 146097) 400)) 1) 100)) (div (- (+ ?x781 (* (div 0 146097) 400)) 1) 400))))
 (let ((?x109 (+ (+ (- (+ (+ ?x273 ?x661) (- ?x125 1)) ?x97) (mod 0 146097)) ?x97)))
 (let ((?x99 (mod ?x109 146097)))
 (let ((?x903 (div ?x99 36524)))
 (let ((?x707 (ite (<= 4 ?x903) 3 ?x903)))
 (let ((?x604 (- ?x99 (* ?x707 36524))))
 (let ((?x796 (mod ?x604 1461)))
 (let ((?x239 (div ?x796 365)))
 (let ((?x742 (ite (<= 4 ?x239) 3 ?x239)))
 (let ((?x488 (+ (+ (* (div ?x109 146097) 400) (* ?x707 100)) (* (div ?x604 1461) 4))))
 (let ((?x464 (+ (+ ?x488 ?x742) 1)))
 (let (($x466 (or (and (= (mod ?x464 4) 0) (and (distinct (mod ?x464 100) 0) true)) (= (mod ?x464 400) 0))))
 (let ((?x706 (- ?x796 (* ?x742 365))))
 (let ((?x637 (ite $x466 31 31)))
 (let (($x514 (>= ?x706 ?x637)))
 (let ((?x436 (ite $x514 (+ (- ?x706 ?x637) 1) (+ (- ?x706 (ite $x466 0 0)) 1))))
 (let ((?x442 (ite $x466 60 59)))
 (let (($x404 (>= ?x706 ?x442)))
 (let ((?x568 (ite $x466 91 90)))
 (let (($x577 (>= ?x706 ?x568)))
 (let ((?x428 (ite $x577 (+ (- ?x706 ?x568) 1) (ite $x404 (+ (- ?x706 ?x442) 1) ?x436))))
 (let ((?x543 (ite $x466 121 120)))
 (let (($x487 (>= ?x706 ?x543)))
 (let ((?x572 (ite $x466 152 151)))
 (let (($x495 (>= ?x706 ?x572)))
 (let ((?x437 (ite $x495 (+ (- ?x706 ?x572) 1) (ite $x487 (+ (- ?x706 ?x543) 1) ?x428))))
 (let ((?x554 (ite $x466 182 181)))
 (let (($x469 (>= ?x706 ?x554)))
 (let ((?x542 (ite $x466 213 212)))
 (let (($x493 (>= ?x706 ?x542)))
 (let ((?x112 (ite $x493 (+ (- ?x706 ?x542) 1) (ite $x469 (+ (- ?x706 ?x554) 1) ?x437))))
 (let ((?x553 (ite $x466 244 243)))
 (let (($x494 (>= ?x706 ?x553)))
 (let ((?x550 (ite $x466 274 273)))
 (let (($x499 (>= ?x706 ?x550)))
 (let ((?x420 (ite $x499 (+ (- ?x706 ?x550) 1) (ite $x494 (+ (- ?x706 ?x553) 1) ?x112))))
 (let ((?x202 (ite $x466 305 304)))
 (let (($x114 (>= ?x706 ?x202)))
 (let ((?x402 (ite $x466 335 334)))
 (let (($x391 (>= ?x706 ?x402)))
 (let ((?x489 (ite $x391 (+ (- ?x706 ?x402) 1) (ite $x114 (+ (- ?x706 ?x202) 1) ?x420))))
 (let (($x318 (= 0 0)))
 (let ((?x415 (ite $x487 5 (ite $x577 4 (ite $x404 3 (ite $x514 2 1))))))
 (let ((?x497 (ite $x494 9 (ite $x493 8 (ite $x469 7 (ite $x495 6 ?x415))))))
 (let (($x405 (= y_month (ite $x318 ?x765 (ite $x391 12 (ite $x114 11 (ite $x499 10 ?x497)))))))
 (and (= y_year (ite $x318 ?x781 ?x464)) $x405 (= y_day (ite $x318 ?x125 ?x489))))))))))))))))))))))))))))))))))))))))))))))))))))))))))))))))))))))))))
(assert
 (let (($x579 (= y_day 30)))
(let (($x732 (= y_month 4)))
(let (($x111 (= y_year 2023)))
(and $x111 $x732 $x579)))))
(check-sat)
